$molecule
2 1
  C   -1.5634344    3.6684473    0.7974220
  C   -0.0687311    3.9460387    0.7978112
  O    0.3215135    4.3959990   -0.4831666
  C    1.7021604    4.7171724   -0.5056990
  C    2.4960507    3.6347536   -1.2332024
  O    2.3596728    2.4143815   -0.5383744
  C    3.4066235    1.5346670   -0.8842713
  C    3.0649912    0.1448562   -0.3649173
  O    1.9032651   -0.3198274   -1.0223690
  C    1.2513207   -1.3201306   -0.2643742
  C    0.0341210   -0.7194486    0.4358058
  O   -0.6361242   -1.6991486    1.1800749
  C   -2.9627702    0.1459120   -3.0330922
  C   -3.2302061   -1.1982814   -2.3722082
  O   -3.2377899    1.1760723   -2.1096959
  C   -3.1423005    2.4230692   -2.7609902
  C    3.3378360   -0.9892193    3.7547949
  C    2.3565993    0.1637697    3.9020880
  O    2.9959192    1.3644861    3.5282189
  C    2.1309222    2.4489450    3.7785673
 Mg    0.0041118    1.6689453   -2.0387355
  H   -1.8791357    3.3150943    1.8019831
  H   -1.8044786    2.8848035    0.0491008
  H   -2.1222824    4.5962498    0.5507186
  H    0.4519909    2.9985827    1.0554615
  H    0.1268250    4.7244790    1.5705162
  H    2.1457774    4.8844580    0.5054889
  H    1.8201155    5.6775843   -1.0507179
  H    3.5566085    3.9794711   -1.2685733
  H    2.1013382    3.5248835   -2.2674740
  H    4.3516358    1.8675932   -0.3997186
  H    3.5436193    1.4656094   -1.9890929
  H    2.9227303    0.2379929    0.7374868
  H    3.9109820   -0.5441867   -0.5800953
  H    1.9161840   -1.8233297    0.4790352
  H    0.9171917   -2.1174676   -0.9615475
  H   -0.6552880   -0.2552357   -0.3049201
  H    0.3592042    0.0876645    1.1239844
  H   -1.1546074   -2.2438685    0.5317872
  H   -3.6257306    0.2148150   -3.9267801
  H   -1.8929034    0.1734978   -3.3407433
  H   -4.2944215   -1.2634566   -2.0607612
  H   -2.5834542   -1.3210778   -1.4788581
  H   -3.0137189   -2.0193693   -3.0877556
  H   -3.2923736    3.2233596   -2.0080910
  H   -3.9424271    2.5379102   -3.5249147
  H   -2.1334267    2.5796638   -3.2029052
  H    2.8422145   -1.9421645    4.0363799
  H    4.2141399   -0.8286734    4.4180318
  H    3.6874916   -1.0641234    2.7037230
  H    2.0302607    0.1942488    4.9673829
  H    1.4877066   -0.0386617    3.2378868
  H    2.6015821    3.3713682    3.3805951
  H    1.9823591    2.5957842    4.8710175
  H    1.1584000    2.3299056    3.2523366
$end

$rem
   BASIS  =  3-21G
   METHOD  =  HF
$end
