$molecule
2 1
  C    4.7145270   -0.4008941   -0.0391365
  C    3.5383092    0.5625805    0.0274467
  O    2.3541393   -0.2112903    0.0270052
  C    1.1757183    0.5694072   -0.0164175
  C   -0.0061121   -0.3812919    0.1056140
  O   -1.1878055    0.3863528   -0.0170132
  C   -2.3666809   -0.3839961    0.1126830
  C   -3.5506480    0.5483561   -0.0974694
  O   -4.7289560   -0.2193898    0.0541301
  C   -5.9124074    0.5346967   -0.1222172
  C   -7.0896736   -0.4049884    0.0929494
  O   -8.2752623    0.3429948   -0.0963243
  C   -9.4523825   -0.4203765    0.0777438
  C  -10.6535526    0.4949178   -0.1468379
  O    5.8991242    0.3653206    0.0552610
  C    7.0761022   -0.4125654   -0.0528261
  C    8.2636526    0.5185456    0.1422168
  O    9.4386480   -0.2521381   -0.0039665
  C   10.6267093    0.5042742    0.1617672
  C   11.8175960   -0.4176423   -0.0416367
  O  -11.8796390   -0.2026718    0.0260024
  H    4.6809321   -0.9665293   -0.9840230
  H    4.6454507   -1.1276915    0.7863785
  H    3.5661295    1.2466262   -0.8358649
  H    3.6118590    1.1748187    0.9405144
  H    1.1053349    1.1302328   -0.9622400
  H    1.1533985    1.3014233    0.8069664
  H    0.0308815   -0.9005812    1.0765389
  H    0.0511665   -1.1479324   -0.6839952
  H   -2.4301720   -0.8477691    1.1101201
  H   -2.3938456   -1.1944867   -0.6333529
  H   -3.4971283    0.9990264   -1.1014070
  H   -3.5151728    1.3680690    0.6380043
  H   -5.9606058    0.9670582   -1.1345180
  H   -5.9623762    1.3669019    0.5980801
  H   -7.0467018   -0.8301729    1.1083457
  H   -7.0324890   -1.2423807   -0.6212650
  H   -9.5015127   -0.8535426    1.0896112
  H   -9.4790071   -1.2603420   -0.6409554
  H  -10.5784033    0.9634303   -1.1396391
  H  -10.6476507    1.2963584    0.5974773
  H    7.1414074   -0.8973348   -1.0400491
  H    7.0962543   -1.2074558    0.7099598
  H    8.2121840    0.9829758    1.1406433
  H    8.2248696    1.3304396   -0.6027344
  H   10.6510382    0.9551180    1.1686562
  H   10.6494731    1.3345758   -0.5647809
  H   11.7992535   -1.2350462    0.6865673
  H   12.7550347    0.1360239    0.0804783
  H   11.7986770   -0.8528912   -1.0460100
  H  -11.9720155   -0.8247469   -0.7119593
 Mg    2.4481738   -2.2072224    0.1131033
$end

$rem
   BASIS  =  3-21++G
   DFT_D  =  EMPIRICAL_GRIMME3
   dft_d3_3body = True
   dft_d3_rs6 = 1094
   dft_d3_s6 = 1000
   dft_d3_s8 = 1682
   JOB_TYPE  =  Optimization
   METHOD  =  BLYP
   geom_opt_max_cycles = 250
   MAX_SCF_CYCLES = 300
   SCF_ALGORITHM = diis 
   SCF_CONVERGENCE = 7
   THRESH = 12
$end
