$molecule
0 1
  C   -4.3681500    2.0273000   -0.1260500
  C   -3.1352100    2.9216600   -0.0954300
  O   -1.9809200    2.1178700    0.0276400
  C   -0.8365800    2.9446800    0.0330400
  C    0.4127400    2.0726000    0.0368100
  O    1.5479300    2.9104800    0.0378200
  C    2.7191400    2.1239800    0.0133400
  C    3.9289800    3.0490500    0.0516100
  O    5.1077400    2.2728300    0.0390500
  C    6.2301300    3.1271400    0.0974900
  C    7.4944300    2.2837400    0.1999800
  O    8.6114900    3.1437800    0.2718700
  C    9.7849200    2.3795900    0.4440100
  C   10.9764400    3.3255800    0.5569500
  O   -5.5121800    2.8389400   -0.2787200
  C   -6.6659200    2.0280600   -0.3386800
  C   -7.8638200    2.9044600   -0.6826900
  O   -9.0209300    2.0994800   -0.7495400
  C  -10.1176000    2.8886100   -1.1574800
  C  -11.3632600    2.0174700   -1.2083800
  O   12.1657000    2.5991700    0.7085300
  H   -4.4123600    1.4575600    0.8305800
  H   -4.2599300    1.3311300   -0.9896300
  H   -3.2294100    3.6130600    0.7734600
  H   -3.1133000    3.4973500   -1.0495500
  H   -0.8214900    3.5805700    0.9477000
  H   -0.7973800    3.5805800   -0.8819500
  H    0.3911900    1.4373800   -0.8787300
  H    0.3899700    1.4376500    0.9521600
  H    2.7710600    1.5231400   -0.9236600
  H    2.7671100    1.4584500    0.9060400
  H    3.8636200    3.6521500    0.9867700
  H    3.8857700    3.7130800   -0.8424900
  H    6.1884500    3.7794300    1.0008100
  H    6.2969700    3.7473600   -0.8257400
  H    7.5566800    1.6346400   -0.7034100
  H    7.4119100    1.6615800    1.1212300
  H    9.9525100    1.7137400   -0.4333900
  H    9.7339100    1.7821500    1.3832800
  H   10.8400300    4.0289800    1.4102900
  H   11.0529300    3.9387800   -0.3660300
  H   -6.8511000    1.5450000    0.6476200
  H   -6.5755100    1.2561100   -1.1381300
  H   -7.6570100    3.3865800   -1.6666600
  H   -7.9707600    3.6772800    0.1128300
  H   -9.9505000    3.3006400   -2.1790200
  H  -10.3067200    3.7121200   -0.4312800
  H  -11.2171300    1.1865000   -1.9309500
  H  -12.2346200    2.6256900   -1.5311300
  H  -11.5724100    1.5931400   -0.2034500
  H   12.2094800    2.3201700    1.6604000
$end

$rem
   BASIS  =  6-31G*
   JOB_TYPE  =  Optimization
   METHOD  =  B3LYP
   SCF_CONVERGENCE  =  8
$end
