$molecule
0 1
  C   -3.1880572    3.2615189   -0.0062444
  C   -1.9725305    2.3447196   -0.0611493
  O   -0.7910744    3.0928131    0.0205607
  H   -4.1170000    2.6552004   -0.0513119
  H   -3.1748807    3.9638101   -0.8664995
  H   -3.1824517    3.8435646    0.9396708
  H   -1.9852557    1.7350135   -0.9932878
  H   -2.0058182    1.6391908    0.7958726
  H   -0.6369250    3.4810482   -0.8804685
$end

$rem
   BASIS  =  6-31++G
   JOB_TYPE  =  Optimization
   METHOD  =  B3LYP
$end
